9	3	10	5	8	7	4	2	1	6
6	7	3	8	10	4	9	1	2	5
8	4	2	5	6	9	1	7	3	10
5	10	2	8	9	7	4	6	3	1
8	5	6	1	2	7	4	9	3	10
2	6	8	3	1	5	4	9	7	10
8	2	9	6	3	1	5	4	10	7
4	7	9	8	10	6	3	5	1	2
3	5	1	10	6	8	2	7	9	4
3	5	10	8	6	1	4	9	7	2
